0 137130 
1 136530 
2 136130 
3 135930 
4 135730 
5 135630 
6 135430 
7 135330 
8 134930 
9 134730 
10 134230 
11 134030 
12 133130 
13 132930 
14 132730 
15 132630 
16 132530 
17 132130 
18 132030 
19 131800 
20 131200 
21 131100 
22 131000 
23 130300 
24 130160 
25 130130 
26 129810 
27 129750 
28 129550 
29 129150 
30 128950 
31 128670 
32 128470 
33 128270 
34 128200 
35 127800 
36 127680 
37 127580 
38 127380 
39 127280 
40 127080 
41 126880 
42 126800 
43 126600 
44 126500 
45 126300 
46 125980 
47 125750 
48 125150 
49 125150 
50 124450 
51 123950 
52 123890 
53 123690 
54 123490 
55 123490 
56 123310 
57 123110 
58 122930 
59 122830 
60 122430 
61 122030 
62 121830 
63 121530 
64 121430 
65 120930 
66 120730 
67 120330 
68 120230 
69 120230 
70 119630 
71 119230 
72 118830 
73 118630 
74 118230 
75 118030 
76 117900 
77 117400 
78 117090 
79 117030 
80 116830 
81 116640 
82 116640 
83 116450 
84 116150 
85 115950 
86 115490 
87 115170 
88 114970 
89 114370 
90 113970 
91 113870 
92 113870 
93 113670 
94 113500 
95 113290 
96 113190 
97 113090 
98 112770 
99 112570 
100 112270 
101 111870 
102 111870 
103 111770 
104 111370 
105 111170 
106 110980 
107 110780 
108 110380 
109 110280 
110 110080 
111 109680 
112 109280 
113 109180 
114 108980 
115 108980 
116 108780 
117 108580 
118 108380 
119 108280 
120 107980 
121 107880 
122 107680 
123 107680 
124 107480 
125 107180 
126 106880 
127 106680 
128 106680 
129 105880 
130 105780 
131 105580 
132 105380 
133 105280 
134 104880 
135 104190 
136 104120 
137 103540 
138 103340 
139 103240 
140 103040 
141 102440 
142 102340 
143 101940 
144 101740 
145 101640 
146 101440 
147 101140 
148 101040 
149 100840 
150 100740 
151 100540 
152 100540 
153 100340 
154 100240 
155 100040 
156 99440 
157 99240 
158 99040 
159 98840 
160 98540 
161 98140 
162 98040 
163 97640 
164 97640 
165 97640 
166 97640 
167 97440 
168 97040 
169 96440 
170 96240 
171 96040 
172 96040 
173 96040 
174 95840 
175 95640 
176 95440 
177 95440 
178 95440 
179 95440 
180 95340 
181 95340 
182 95340 
183 95340 
184 95340 
185 95140 
186 94940 
187 94840 
188 94840 
189 94840 
190 94240 
191 94040 
192 94040 
193 93840 
194 93840 
195 93840 
196 93840 
197 93840 
198 93840 
199 93840 
200 93840 
201 93840 
202 93840 
203 93840 
204 93840 
205 93840 
206 93840 
207 93840 
208 93640 
209 93640 
210 93640 
211 93640 
212 93640 
213 93640 
214 93640 
215 93640 
216 93640 
217 93640 
218 93640 
219 93640 
220 93640 
221 93640 
222 93640 
223 93640 
224 93640 
225 93640 
226 93640 
227 93640 
228 93640 
229 93640 
230 93640 
231 93640 
232 93640 
233 93640 
234 93640 
235 93640 
236 93640 
237 93640 
238 93640 
239 93640 
240 93640 
241 93640 
242 93640 
243 93640 
244 93640 
245 93640 
246 93640 
247 93640 
248 93640 
249 93640 
250 93640 
251 93640 
252 93640 
253 93640 
254 93640 
255 93640 
256 93640 
257 93640 
258 93640 
259 93640 
260 93640 
261 93640 
262 93640 
263 93640 
264 93640 
265 93640 
266 93640 
267 93640 
268 93640 
269 93640 
270 93640 
271 93640 
272 93640 
273 93640 
274 93640 
275 93640 
276 93640 
277 93640 
278 93640 
279 93640 
280 93640 
281 93640 
282 93640 
283 93640 
284 93640 
285 93640 
286 93640 
287 93640 
288 93640 
289 93640 
290 93640 
291 93640 
292 93640 
293 93640 
294 93640 
295 93640 
296 93640 
297 93640 
298 93640 
299 93640 
300 93640 
301 93640 
302 93640 
303 93640 
304 93640 
305 93640 
306 93640 
307 93640 
308 93640 
309 93640 
310 93640 
311 93640 
312 93640 
313 93640 
314 93640 
315 93640 
316 93640 
317 93640 
318 93640 
319 93640 
320 93640 
321 93640 
322 93640 
323 93640 
324 93640 
325 93640 
326 93640 
327 93640 
328 93640 
329 93640 
330 93640 
331 93640 
332 93640 
333 93640 
334 93640 
335 93640 
336 93640 
337 93640 
338 93640 
339 93640 
340 93640 
341 93640 
342 93640 
343 93640 
344 93640 
345 93640 
346 93640 
347 93640 
348 93640 
349 93640 
350 93640 
351 93640 
352 93640 
353 93640 
354 93640 
355 93640 
356 93640 
357 93640 
358 93640 
359 93640 
360 93640 
361 93640 
362 93640 
363 93640 
364 93640 
365 93640 
366 93640 
367 93640 
368 93640 
369 93640 
370 93640 
371 93640 
372 93640 
373 93640 
374 93640 
375 93640 
376 93640 
377 93640 
378 93640 
379 93640 
380 93640 
381 93640 
382 93640 
383 93640 
384 93640 
385 93640 
386 93640 
387 93640 
388 93640 
389 93640 
390 93640 
391 93640 
392 93640 
393 93640 
394 93640 
395 93640 
396 93640 
397 93640 
398 93640 
399 93640 
400 93640 
401 93640 
402 93640 
403 93640 
404 93640 
405 93640 
406 93640 
407 93640 
408 93640 
409 93640 
410 93640 
411 93640 
412 93640 
413 93640 
414 93640 
415 93640 
416 93640 
417 93640 
418 93640 
419 93640 
420 93640 
421 93640 
422 93640 
423 93640 
424 93640 
425 93640 
426 93640 
427 93640 
428 93640 
429 93640 
430 93640 
431 93640 
432 93640 
433 93640 
434 93640 
435 93640 
436 93640 
437 93640 
438 93640 
439 93640 
440 93640 
441 93640 
442 93640 
443 93640 
444 93640 
445 93640 
446 93640 
447 93640 
448 93640 
449 93640 
450 93640 
451 93640 
452 93640 
453 93640 
454 93640 
455 93640 
456 93640 
457 93640 
458 93640 
459 93640 
460 93640 
461 93640 
462 93640 
463 93640 
464 93640 
465 93640 
466 93640 
467 93640 
468 93640 
469 93640 
470 93640 
471 93640 
472 93640 
473 93640 
474 93640 
475 93640 
476 93640 
477 93640 
478 93640 
479 93640 
480 93640 
481 93640 
482 93640 
483 93640 
484 93640 
485 93640 
486 93640 
487 93640 
488 93640 
489 93640 
490 93640 
491 93640 
492 93640 
493 93640 
494 93640 
495 93640 
496 93640 
497 93640 
498 93640 
499 93640 
500 93640 
501 93640 
502 93640 
503 93640 
504 93640 
505 93640 
506 93640 
507 93640 
508 93640 
509 93640 
510 93640 
511 93640 
512 93640 
513 93640 
514 93640 
515 93640 
516 93640 
517 93640 
518 93640 
519 93640 
520 93640 
521 93640 
522 93640 
523 93640 
524 93640 
525 93640 
526 93640 
527 93640 
528 93640 
529 93640 
530 93640 
531 93640 
532 93640 
533 93640 
534 93640 
535 93640 
536 93640 
537 93640 
538 93640 
539 93640 
540 93640 
541 93640 
542 93640 
543 93640 
544 93640 
545 93640 
546 93640 
547 93640 
548 93640 
549 93640 
550 93640 
551 93640 
552 93640 
553 93640 
554 93640 
555 93640 
556 93640 
557 93640 
558 93640 
559 93640 
560 93640 
561 93640 
562 93640 
563 93640 
564 93640 
565 93640 
566 93640 
567 93640 
568 93640 
569 93640 
570 93640 
571 93640 
572 93640 
573 93640 
574 93640 
575 93640 
576 93640 
577 93640 
578 93640 
579 93640 
580 93640 
581 93640 
582 93640 
583 93640 
584 93640 
585 93640 
586 93640 
587 93640 
588 93640 
589 93640 
590 93640 
591 93640 
592 93640 
593 93640 
594 93640 
595 93640 
596 93640 
597 93640 
598 93640 
599 93640 
600 93640 
601 93640 
602 93640 
603 93640 
604 93640 
605 93640 
606 93640 
607 93640 
608 93640 
609 93640 
610 93640 
611 93640 
612 93640 
613 93640 
614 93640 
615 93640 
616 93640 
617 93640 
618 93640 
619 93640 
620 93640 
621 93640 
622 93640 
623 93640 
624 93640 
625 93640 
626 93640 
627 93640 
628 93640 
629 93640 
630 93640 
631 93640 
632 93640 
633 93640 
634 93640 
635 93640 
636 93640 
637 93640 
638 93640 
639 93640 
640 93640 
641 93640 
642 93640 
643 93640 
644 93640 
645 93640 
646 93640 
647 93640 
648 93640 
649 93640 
650 93640 
651 93640 
652 93640 
653 93640 
654 93640 
655 93640 
656 93640 
657 93640 
658 93640 
659 93640 
660 93640 
661 93640 
662 93640 
663 93640 
664 93640 
665 93640 
666 93640 
667 93640 
668 93640 
669 93640 
670 93640 
671 93640 
672 93640 
673 93640 
674 93640 
675 93640 
676 93640 
677 93640 
678 93640 
679 93640 
680 93640 
681 93640 
682 93640 
683 93640 
684 93640 
685 93640 
686 93640 
687 93640 
688 93640 
689 93640 
690 93640 
691 93640 
692 93640 
693 93640 
694 93640 
695 93640 
696 93640 
697 93640 
698 93640 
699 93640 
700 93640 
701 93640 
702 93640 
703 93640 
704 93640 
705 93640 
706 93640 
707 93640 
708 93640 
709 93640 
710 93640 
711 93640 
712 93640 
713 93640 
714 93640 
715 93640 
716 93640 
717 93640 
718 93640 
719 93640 
720 93640 
721 93640 
722 93640 
723 93640 
724 93640 
725 93640 
726 93640 
727 93640 
728 93640 
729 93640 
730 93640 
731 93640 
732 93640 
733 93640 
734 93640 
735 93640 
736 93640 
737 93640 
738 93640 
739 93640 
740 93640 
741 93640 
742 93640 
743 93640 
744 93640 
745 93640 
746 93640 
747 93640 
748 93640 
749 93640 
750 93640 
751 93640 
752 93640 
753 93640 
754 93640 
755 93640 
756 93640 
757 93640 
758 93640 
759 93640 
760 93640 
761 93640 
762 93640 
763 93640 
764 93640 
765 93640 
766 93640 
767 93640 
768 93640 
769 93640 
770 93640 
771 93640 
772 93640 
773 93640 
774 93640 
775 93640 
776 93640 
777 93640 
778 93640 
779 93640 
780 93640 
781 93640 
782 93640 
783 93640 
784 93640 
785 93640 
786 93640 
787 93640 
788 93640 
789 93640 
790 93640 
791 93640 
792 93640 
793 93640 
794 93640 
795 93640 
796 93640 
797 93640 
798 93640 
799 93640 
800 93640 
801 93640 
802 93640 
803 93640 
804 93640 
805 93640 
806 93640 
807 93640 
808 93640 
809 93640 
810 93640 
811 93640 
812 93640 
813 93640 
814 93640 
815 93640 
816 93640 
817 93640 
818 93640 
819 93640 
820 93640 
821 93640 
822 93640 
823 93640 
824 93640 
825 93640 
826 93640 
827 93640 
828 93640 
829 93640 
830 93640 
831 93640 
832 93640 
833 93640 
834 93640 
835 93640 
836 93640 
837 93640 
838 93640 
839 93640 
840 93640 
841 93640 
842 93640 
843 93640 
844 93640 
845 93640 
846 93640 
847 93640 
848 93640 
849 93640 
850 93640 
851 93640 
852 93640 
853 93640 
854 93640 
855 93640 
856 93640 
857 93640 
858 93640 
859 93640 
860 93640 
861 93640 
862 93640 
863 93640 
864 93640 
865 93640 
866 93640 
867 93640 
868 93640 
869 93640 
870 93640 
871 93640 
872 93640 
873 93640 
874 93640 
875 93640 
876 93640 
877 93640 
878 93640 
879 93640 
880 93640 
881 93640 
882 93640 
883 93640 
884 93640 
885 93640 
886 93640 
887 93640 
888 93640 
889 93640 
890 93640 
891 93640 
892 93640 
893 93640 
894 93640 
895 93640 
896 93640 
897 93640 
898 93640 
899 93640 
900 93640 
901 93640 
902 93640 
903 93640 
904 93640 
905 93640 
906 93640 
907 93640 
908 93640 
909 93640 
910 93640 
911 93640 
912 93640 
913 93640 
914 93640 
915 93640 
916 93640 
917 93640 
918 93640 
919 93640 
920 93640 
921 93640 
922 93640 
923 93640 
924 93640 
925 93640 
926 93640 
927 93640 
928 93640 
929 93640 
930 93640 
931 93640 
932 93640 
933 93640 
934 93640 
935 93640 
936 93640 
937 93640 
938 93640 
939 93640 
940 93640 
941 93640 
942 93640 
943 93640 
944 93640 
945 93640 
946 93640 
947 93640 
948 93640 
949 93640 
950 93640 
951 93640 
952 93640 
953 93640 
954 93640 
955 93640 
956 93640 
957 93640 
958 93640 
959 93640 
960 93640 
961 93640 
962 93640 
963 93640 
964 93640 
965 93640 
966 93640 
967 93640 
968 93640 
969 93640 
970 93640 
971 93640 
972 93640 
973 93640 
974 93640 
975 93640 
976 93640 
977 93640 
978 93640 
979 93640 
980 93640 
981 93640 
982 93640 
983 93640 
984 93640 
985 93640 
986 93640 
987 93640 
988 93640 
989 93640 
990 93640 
991 93640 
992 93640 
993 93640 
994 93640 
995 93640 
996 93640 
997 93640 
998 93640 
999 93640 
1000 93640 
1001 93640 
1002 93640 
1003 93640 
1004 93640 
1005 93640 
1006 93640 
1007 93640 
1008 93640 
1009 93640 
1010 93640 
1011 93640 
1012 93640 
1013 93640 
1014 93640 
1015 93640 
1016 93640 
1017 93640 
1018 93640 
1019 93640 
1020 93640 
1021 93640 
1022 93640 
1023 93640 
1024 93640 
1025 93640 
1026 93640 
1027 93640 
1028 93640 
1029 93640 
1030 93640 
1031 93640 
1032 93640 
1033 93640 
1034 93640 
1035 93640 
1036 93640 
1037 93640 
1038 93640 
1039 93640 
1040 93640 
1041 93640 
1042 93640 
1043 93640 
1044 93640 
1045 93640 
1046 93640 
1047 93640 
1048 93640 
1049 93640 
1050 93640 
1051 93640 
1052 93640 
1053 93640 
1054 93640 
1055 93640 
1056 93640 
1057 93640 
1058 93640 
1059 93640 
1060 93640 
1061 93640 
1062 93640 
1063 93640 
1064 93640 
1065 93640 
1066 93640 
1067 93640 
1068 93640 
1069 93640 
1070 93640 
1071 93640 
1072 93640 
1073 93640 
1074 93640 
1075 93640 
1076 93640 
1077 93640 
1078 93640 
1079 93640 
1080 93640 
1081 93640 
1082 93640 
1083 93640 
1084 93640 
1085 93640 
1086 93640 
1087 93640 
1088 93640 
1089 93640 
1090 93640 
1091 93640 
1092 93640 
1093 93640 
1094 93640 
1095 93640 
1096 93640 
1097 93640 
1098 93640 
1099 93640 
1100 93640 
1101 93640 
1102 93640 
1103 93640 
1104 93640 
1105 93640 
1106 93640 
1107 93640 
1108 93640 
1109 93640 
1110 93640 
1111 93640 
1112 93640 
1113 93640 
1114 93640 
1115 93640 
1116 93640 
1117 93640 
1118 93640 
1119 93640 
1120 93640 
1121 93640 
1122 93640 
1123 93640 
1124 93640 
1125 93640 
1126 93640 
1127 93640 
1128 93640 
1129 93640 
1130 93640 
1131 93640 
1132 93640 
1133 93640 
1134 93640 
1135 93640 
1136 93640 
1137 93640 
1138 93640 
1139 93640 
1140 93640 
1141 93640 
1142 93640 
1143 93640 
1144 93640 
1145 93640 
1146 93640 
1147 93640 
1148 93640 
1149 93640 
1150 93640 
1151 93640 
1152 93640 
1153 93640 
1154 93640 
1155 93640 
1156 93640 
1157 93640 
1158 93640 
1159 93640 
1160 93640 
1161 93640 
1162 93640 
1163 93640 
1164 93640 
1165 93640 
1166 93640 
1167 93640 
1168 93640 
1169 93640 
1170 93640 
1171 93640 
1172 93640 
1173 93640 
1174 93640 
1175 93640 
1176 93640 
1177 93640 
1178 93640 
1179 93640 
1180 93640 
1181 93640 
1182 93640 
1183 93640 
1184 93640 
1185 93640 
1186 93640 
1187 93640 
1188 93640 
1189 93640 
1190 93640 
1191 93640 
1192 93640 
1193 93640 
1194 93640 
1195 93640 
1196 93640 
1197 93640 
1198 93640 
1199 93640 
1200 93640 
1201 93640 
1202 93640 
1203 93640 
1204 93640 
1205 93640 
1206 93640 
1207 93640 
1208 93640 
1209 93640 
1210 93640 
1211 93640 
1212 93640 
1213 93640 
1214 93640 
1215 93640 
1216 93640 
1217 93640 
1218 93640 
1219 93640 
1220 93640 
1221 93640 
1222 93640 
1223 93640 
1224 93640 
1225 93640 
1226 93640 
1227 93640 
1228 93640 
1229 93640 
1230 93640 
1231 93640 
1232 93640 
1233 93640 
1234 93640 
1235 93640 
1236 93640 
1237 93640 
1238 93640 
1239 93640 
1240 93640 
1241 93640 
1242 93640 
1243 93640 
1244 93640 
1245 93640 
1246 93640 
1247 93640 
1248 93640 
1249 93640 
1250 93640 
1251 93640 
1252 93640 
1253 93640 
1254 93640 
1255 93640 
1256 93640 
1257 93640 
1258 93640 
1259 93640 
1260 93640 
1261 93640 
1262 93640 
1263 93640 
1264 93640 
1265 93640 
1266 93640 
1267 93640 
1268 93640 
1269 93640 
1270 93640 
1271 93640 
1272 93640 
1273 93640 
1274 93640 
1275 93640 
1276 93640 
1277 93640 
1278 93640 
1279 93640 
1280 93640 
1281 93640 
1282 93640 
1283 93640 
1284 93640 
1285 93640 
1286 93640 
1287 93640 
1288 93640 
1289 93640 
1290 93640 
1291 93640 
1292 93640 
1293 93640 
1294 93640 
1295 93640 
1296 93640 
1297 93640 
1298 93640 
1299 93640 
1300 93640 
1301 93640 
1302 93640 
1303 93640 
1304 93640 
1305 93640 
1306 93640 
1307 93640 
1308 93640 
1309 93640 
1310 93640 
1311 93640 
1312 93640 
1313 93640 
1314 93640 
1315 93640 
1316 93640 
1317 93640 
1318 93640 
1319 93640 
1320 93640 
1321 93640 
1322 93640 
1323 93640 
1324 93640 
1325 93640 
1326 93640 
1327 93640 
1328 93640 
1329 93640 
1330 93640 
1331 93640 
1332 93640 
1333 93640 
1334 93640 
1335 93640 
1336 93640 
1337 93640 
1338 93640 
1339 93640 
1340 93640 
1341 93640 
1342 93640 
1343 93640 
1344 93640 
1345 93640 
1346 93640 
1347 93640 
1348 93640 
1349 93640 
1350 93640 
1351 93640 
1352 93640 
1353 93640 
1354 93640 
1355 93640 
1356 93640 
1357 93640 
1358 93640 
1359 93640 
1360 93640 
1361 93640 
1362 93640 
1363 93640 
1364 93640 
1365 93640 
1366 93640 
1367 93640 
1368 93640 
1369 93640 
1370 93640 
1371 93640 
1372 93640 
1373 93640 
1374 93640 
1375 93640 
1376 93640 
1377 93640 
1378 93640 
1379 93640 
1380 93640 
1381 93640 
1382 93640 
1383 93640 
1384 93640 
1385 93640 
1386 93640 
1387 93640 
1388 93640 
1389 93640 
1390 93640 
1391 93640 
1392 93640 
1393 93640 
1394 93640 
1395 93640 
1396 93640 
1397 93640 
1398 93640 
1399 93640 
1400 93640 
1401 93640 
1402 93640 
1403 93640 
1404 93640 
1405 93640 
1406 93640 
1407 93640 
1408 93640 
1409 93640 
1410 93640 
1411 93640 
1412 93640 
1413 93640 
1414 93640 
1415 93640 
1416 93640 
1417 93640 
1418 93640 
1419 93640 
1420 93640 
1421 93640 
1422 93640 
1423 93640 
1424 93640 
1425 93640 
1426 93640 
1427 93640 
1428 93640 
1429 93640 
1430 93640 
1431 93640 
1432 93640 
1433 93640 
1434 93640 
1435 93640 
1436 93640 
1437 93640 
1438 93640 
1439 93640 
1440 93640 
1441 93640 
1442 93640 
1443 93640 
1444 93640 
1445 93640 
1446 93640 
1447 93640 
1448 93640 
1449 93640 
1450 93640 
1451 93640 
1452 93640 
1453 93640 
1454 93640 
1455 93640 
1456 93640 
1457 93640 
1458 93640 
1459 93640 
1460 93640 
1461 93640 
1462 93640 
1463 93640 
1464 93640 
1465 93640 
1466 93640 
1467 93640 
1468 93640 
1469 93640 
1470 93640 
1471 93640 
1472 93640 
1473 93640 
1474 93640 
1475 93640 
1476 93640 
1477 93640 
1478 93640 
1479 93640 
1480 93640 
1481 93640 
1482 93640 
1483 93640 
1484 93640 
1485 93640 
1486 93640 
1487 93640 
1488 93640 
1489 93640 
1490 93640 
1491 93640 
1492 93640 
1493 93640 
1494 93640 
1495 93640 
1496 93640 
1497 93640 
1498 93640 
1499 93640 
1500 93640 
1501 93640 
1502 93640 
1503 93640 
1504 93640 
1505 93640 
1506 93640 
1507 93640 
1508 93640 
1509 93640 
1510 93640 
1511 93640 
1512 93640 
1513 93640 
1514 93640 
1515 93640 
1516 93640 
1517 93640 
1518 93640 
1519 93640 
1520 93640 
1521 93640 
1522 93640 
1523 93640 
1524 93640 
1525 93640 
1526 93640 
1527 93640 
1528 93640 
1529 93640 
1530 93640 
1531 93640 
1532 93640 
1533 93640 
1534 93640 
1535 93640 
1536 93640 
1537 93640 
1538 93640 
1539 93640 
1540 93640 
1541 93640 
1542 93640 
1543 93640 
1544 93640 
1545 93640 
1546 93640 
1547 93640 
1548 93640 
1549 93640 
1550 93640 
1551 93640 
1552 93640 
1553 93640 
1554 93640 
1555 93640 
1556 93640 
1557 93640 
1558 93640 
1559 93640 
1560 93640 
1561 93640 
1562 93640 
1563 93640 
1564 93640 
1565 93640 
1566 93640 
1567 93640 
1568 93640 
1569 93640 
1570 93640 
1571 93640 
1572 93640 
1573 93640 
1574 93640 
1575 93640 
1576 93640 
1577 93640 
1578 93640 
1579 93640 
1580 93640 
1581 93640 
1582 93640 
1583 93640 
1584 93640 
1585 93640 
1586 93640 
1587 93640 
1588 93640 
1589 93640 
1590 93640 
1591 93640 
1592 93640 
1593 93640 
1594 93640 
1595 93640 
1596 93640 
1597 93640 
1598 93640 
1599 93640 
1600 93640 
1601 93640 
1602 93640 
1603 93640 
1604 93640 
1605 93640 
1606 93640 
1607 93640 
1608 93640 
1609 93640 
1610 93640 
1611 93640 
1612 93640 
1613 93640 
1614 93640 
1615 93640 
1616 93640 
1617 93640 
1618 93640 
1619 93640 
1620 93640 
1621 93640 
1622 93640 
1623 93640 
1624 93640 
1625 93640 
1626 93640 
1627 93640 
1628 93640 
1629 93640 
1630 93640 
1631 93640 
1632 93640 
1633 93640 
1634 93640 
1635 93640 
1636 93640 
1637 93640 
1638 93640 
1639 93640 
1640 93640 
1641 93640 
1642 93640 
1643 93640 
1644 93640 
1645 93640 
1646 93640 
1647 93640 
1648 93640 
1649 93640 
1650 93640 
1651 93640 
1652 93640 
1653 93640 
1654 93640 
1655 93640 
1656 93640 
1657 93640 
1658 93640 
1659 93640 
1660 93640 
1661 93640 
1662 93640 
1663 93640 
1664 93640 
1665 93640 
1666 93640 
1667 93640 
1668 93640 
1669 93640 
1670 93640 
1671 93640 
1672 93640 
1673 93640 
1674 93640 
1675 93640 
1676 93640 
1677 93640 
1678 93640 
1679 93640 
1680 93640 
1681 93640 
1682 93640 
1683 93640 
1684 93640 
1685 93640 
1686 93640 
1687 93640 
1688 93640 
1689 93640 
1690 93640 
1691 93640 
1692 93640 
1693 93640 
1694 93640 
1695 93640 
1696 93640 
1697 93640 
1698 93640 
1699 93640 
1700 93640 
1701 93640 
1702 93640 
1703 93640 
1704 93640 
1705 93640 
1706 93640 
1707 93640 
1708 93640 
1709 93640 
1710 93640 
1711 93640 
1712 93640 
1713 93640 
1714 93640 
1715 93640 
1716 93640 
1717 93640 
1718 93640 
1719 93640 
1720 93640 
1721 93640 
1722 93640 
1723 93640 
1724 93640 
1725 93640 
1726 93640 
1727 93640 
1728 93640 
1729 93640 
1730 93640 
1731 93640 
1732 93640 
1733 93640 
1734 93640 
1735 93640 
1736 93640 
1737 93640 
1738 93640 
1739 93640 
1740 93640 
1741 93640 
1742 93640 
1743 93640 
1744 93640 
1745 93640 
1746 93640 
1747 93640 
1748 93640 
1749 93640 
1750 93640 
1751 93640 
1752 93640 
1753 93640 
1754 93640 
1755 93640 
1756 93640 
1757 93640 
1758 93640 
1759 93640 
1760 93640 
1761 93640 
1762 93640 
1763 93640 
1764 93640 
1765 93640 
1766 93640 
1767 93640 
1768 93640 
1769 93640 
1770 93640 
1771 93640 
1772 93640 
1773 93640 
1774 93640 
1775 93640 
1776 93640 
1777 93640 
1778 93640 
1779 93640 
1780 93640 
1781 93640 
1782 93640 
1783 93640 
1784 93640 
1785 93640 
1786 93640 
1787 93640 
1788 93640 
1789 93640 
1790 93640 
1791 93640 
1792 93640 
1793 93640 
1794 93640 
1795 93640 
1796 93640 
1797 93640 
1798 93640 
1799 93640 
1800 93640 
1801 93640 
1802 93640 
1803 93640 
1804 93640 
1805 93640 
1806 93640 
1807 93640 
1808 93640 
1809 93640 
1810 93640 
1811 93640 
1812 93640 
1813 93640 
1814 93640 
1815 93640 
1816 93640 
1817 93640 
1818 93640 
1819 93640 
1820 93640 
1821 93640 
1822 93640 
1823 93640 
1824 93640 
1825 93640 
1826 93640 
1827 93640 
1828 93640 
1829 93640 
1830 93640 
1831 93640 
1832 93640 
1833 93640 
1834 93640 
1835 93640 
1836 93640 
1837 93640 
1838 93640 
1839 93640 
1840 93640 
1841 93640 
1842 93640 
1843 93640 
1844 93640 
1845 93640 
1846 93640 
1847 93640 
1848 93640 
1849 93640 
1850 93640 
1851 93640 
1852 93640 
1853 93640 
1854 93640 
1855 93640 
1856 93640 
1857 93640 
1858 93640 
1859 93640 
1860 93640 
1861 93640 
1862 93640 
1863 93640 
1864 93640 
1865 93640 
1866 93640 
1867 93640 
1868 93640 
1869 93640 
1870 93640 
1871 93640 
1872 93640 
1873 93640 
1874 93640 
1875 93640 
1876 93640 
1877 93640 
1878 93640 
1879 93640 
1880 93640 
1881 93640 
1882 93640 
1883 93640 
1884 93640 
1885 93640 
1886 93640 
1887 93640 
1888 93640 
1889 93640 
1890 93640 
1891 93640 
1892 93640 
1893 93640 
1894 93640 
1895 93640 
1896 93640 
1897 93640 
1898 93640 
1899 93640 
1900 93640 
1901 93640 
1902 93640 
1903 93640 
1904 93640 
1905 93640 
1906 93640 
1907 93640 
1908 93640 
1909 93640 
1910 93640 
1911 93640 
1912 93640 
1913 93640 
1914 93640 
1915 93640 
1916 93640 
1917 93640 
1918 93640 
1919 93640 
1920 93640 
1921 93640 
1922 93640 
1923 93640 
1924 93640 
1925 93640 
1926 93640 
1927 93640 
1928 93640 
1929 93640 
1930 93640 
1931 93640 
1932 93640 
1933 93640 
1934 93640 
1935 93640 
1936 93640 
1937 93640 
1938 93640 
1939 93640 
1940 93640 
1941 93640 
1942 93640 
1943 93640 
1944 93640 
1945 93640 
1946 93640 
1947 93640 
1948 93640 
1949 93640 
1950 93640 
1951 93640 
1952 93640 
1953 93640 
1954 93640 
1955 93640 
1956 93640 
1957 93640 
1958 93640 
1959 93640 
1960 93640 
1961 93640 
1962 93640 
1963 93640 
1964 93640 
1965 93640 
1966 93640 
1967 93640 
1968 93640 
1969 93640 
1970 93640 
1971 93640 
1972 93640 
1973 93640 
1974 93640 
1975 93640 
1976 93640 
1977 93640 
1978 93640 
1979 93640 
1980 93640 
1981 93640 
1982 93640 
1983 93640 
1984 93640 
1985 93640 
1986 93640 
1987 93640 
1988 93640 
1989 93640 
1990 93640 
1991 93640 
1992 93640 
1993 93640 
1994 93640 
1995 93640 
1996 93640 
1997 93640 
1998 93640 
1999 93640 
2000 93640 
2001 93640 
2002 93640 
2003 93640 
2004 93640 
2005 93640 
2006 93640 
2007 93640 
2008 93640 
2009 93640 
2010 93640 
2011 93640 
2012 93640 
2013 93640 
2014 93640 
2015 93640 
2016 93640 
2017 93640 
2018 93640 
2019 93640 
2020 93640 
2021 93640 
2022 93640 
2023 93640 
2024 93640 
2025 93640 
2026 93640 
2027 93640 
2028 93640 
2029 93640 
2030 93640 
2031 93640 
2032 93640 
2033 93640 
2034 93640 
2035 93640 
2036 93640 
2037 93640 
2038 93640 
2039 93640 
2040 93640 
2041 93640 
2042 93640 
2043 93640 
2044 93640 
2045 93640 
2046 93640 
2047 93640 
2048 93640 
2049 93640 
2050 93640 
2051 93640 
2052 93640 
2053 93640 
2054 93640 
2055 93640 
2056 93640 
2057 93640 
2058 93640 
2059 93640 
2060 93640 
2061 93640 
2062 93640 
2063 93640 
2064 93640 
2065 93640 
2066 93640 
2067 93640 
2068 93640 
2069 93640 
2070 93640 
2071 93640 
2072 93640 
2073 93640 
2074 93640 
2075 93640 
2076 93640 
2077 93640 
2078 93640 
2079 93640 
2080 93640 
2081 93640 
2082 93640 
2083 93640 
2084 93640 
2085 93640 
2086 93640 
2087 93640 
2088 93640 
2089 93640 
2090 93640 
2091 93640 
2092 93640 
2093 93640 
2094 93640 
2095 93640 
2096 93640 
2097 93640 
2098 93640 
2099 93640 
2100 93640 
2101 93640 
2102 93640 
2103 93640 
2104 93640 
2105 93640 
2106 93640 
2107 93640 
2108 93640 
2109 93640 
2110 93640 
2111 93640 
2112 93640 
2113 93640 
2114 93640 
2115 93640 
2116 93640 
2117 93640 
2118 93640 
2119 93640 
2120 93640 
2121 93640 
2122 93640 
2123 93640 
2124 93640 
2125 93640 
2126 93640 
2127 93640 
2128 93640 
2129 93640 
2130 93640 
2131 93640 
2132 93640 
2133 93640 
2134 93640 
2135 93640 
2136 93640 
2137 93640 
2138 93640 
2139 93640 
2140 93640 
2141 93640 
2142 93640 
2143 93640 
2144 93640 
2145 93640 
2146 93640 
2147 93640 
2148 93640 
2149 93640 
2150 93640 
2151 93640 
2152 93640 
2153 93640 
2154 93640 
2155 93640 
2156 93640 
2157 93640 
2158 93640 
2159 93640 
2160 93640 
2161 93640 
2162 93640 
2163 93640 
2164 93640 
2165 93640 
2166 93640 
2167 93640 
2168 93640 
2169 93640 
2170 93640 
2171 93640 
2172 93640 
2173 93640 
2174 93640 
2175 93640 
2176 93640 
2177 93640 
2178 93640 
2179 93640 
2180 93640 
2181 93640 
2182 93640 
2183 93640 
2184 93640 
2185 93640 
2186 93640 
2187 93640 
2188 93640 
2189 93640 
2190 93640 
2191 93640 
2192 93640 
2193 93640 
2194 93640 
2195 93640 
2196 93640 
2197 93640 
2198 93640 
2199 93640 
2200 93640 
2201 93640 
2202 93640 
2203 93640 
2204 93640 
2205 93640 
2206 93640 
2207 93640 
2208 93640 
2209 93640 
2210 93640 
2211 93640 
2212 93640 
2213 93640 
2214 93640 
2215 93640 
2216 93640 
2217 93640 
2218 93640 
2219 93640 
2220 93640 
2221 93640 
2222 93640 
2223 93640 
2224 93640 
2225 93640 
2226 93640 
2227 93640 
2228 93640 
2229 93640 
2230 93640 
2231 93640 
2232 93640 
2233 93640 
2234 93640 
2235 93640 
2236 93640 
2237 93640 
2238 93640 
2239 93640 
2240 93640 
2241 93640 
2242 93640 
2243 93640 
2244 93640 
2245 93640 
2246 93640 
2247 93640 
2248 93640 
2249 93640 
2250 93640 
2251 93640 
2252 93640 
2253 93640 
2254 93640 
2255 93640 
2256 93640 
2257 93640 
2258 93640 
2259 93640 
2260 93640 
2261 93640 
2262 93640 
2263 93640 
2264 93640 
2265 93640 
2266 93640 
2267 93640 
2268 93640 
2269 93640 
2270 93640 
2271 93640 
2272 93640 
2273 93640 
2274 93640 
2275 93640 
2276 93640 
2277 93640 
2278 93640 
2279 93640 
2280 93640 
2281 93640 
2282 93640 
2283 93640 
2284 93640 
2285 93640 
2286 93640 
2287 93640 
2288 93640 
2289 93640 
2290 93640 
2291 93640 
2292 93640 
2293 93640 
2294 93640 
2295 93640 
2296 93640 
2297 93640 
2298 93640 
2299 93640 
2300 93640 
2301 93640 
2302 93640 
2303 93640 
2304 93640 
2305 93640 
2306 93640 
2307 93640 
2308 93640 
2309 93640 
2310 93640 
2311 93640 
2312 93640 
2313 93640 
2314 93640 
2315 93640 
2316 93640 
2317 93640 
2318 93640 
2319 93640 
2320 93640 
2321 93640 
2322 93640 
2323 93640 
2324 93640 
2325 93640 
2326 93640 
2327 93640 
2328 93640 
2329 93640 
2330 93640 
2331 93640 
2332 93640 
2333 93640 
2334 93640 
2335 93640 
2336 93640 
2337 93640 
2338 93640 
2339 93640 
2340 93640 
2341 93640 
2342 93640 
2343 93640 
2344 93640 
2345 93640 
2346 93640 
2347 93640 
2348 93640 
2349 93640 
2350 93640 
2351 93640 
2352 93640 
2353 93640 
2354 93640 
2355 93640 
2356 93640 
2357 93640 
2358 93640 
2359 93640 
2360 93640 
2361 93640 
2362 93640 
2363 93640 
2364 93640 
2365 93640 
2366 93640 
2367 93640 
2368 93640 
2369 93640 
2370 93640 
2371 93640 
2372 93640 
2373 93640 
2374 93640 
2375 93640 
2376 93640 
2377 93640 
2378 93640 
2379 93640 
2380 93640 
2381 93640 
2382 93640 
2383 93640 
2384 93640 
2385 93640 
2386 93640 
2387 93640 
2388 93640 
2389 93640 
2390 93640 
2391 93640 
2392 93640 
2393 93640 
2394 93640 
2395 93640 
2396 93640 
2397 93640 
2398 93640 
2399 93640 
2400 93640 
2401 93640 
2402 93640 
2403 93640 
2404 93640 
2405 93640 
2406 93640 
2407 93640 
2408 93640 
2409 93640 
2410 93640 
2411 93640 
2412 93640 
2413 93640 
2414 93640 
2415 93640 
2416 93640 
2417 93640 
2418 93640 
2419 93640 
2420 93640 
2421 93640 
2422 93640 
2423 93640 
2424 93640 
2425 93640 
2426 93640 
2427 93640 
2428 93640 
2429 93640 
2430 93640 
2431 93640 
2432 93640 
2433 93640 
2434 93640 
2435 93640 
2436 93640 
2437 93640 
2438 93640 
2439 93640 
2440 93640 
2441 93640 
2442 93640 
2443 93640 
2444 93640 
2445 93640 
2446 93640 
2447 93640 
2448 93640 
2449 93640 
2450 93640 
2451 93640 
2452 93640 
2453 93640 
2454 93640 
2455 93640 
2456 93640 
2457 93640 
2458 93640 
2459 93640 
2460 93640 
2461 93640 
2462 93640 
2463 93640 
2464 93640 
2465 93640 
2466 93640 
2467 93640 
2468 93640 
2469 93640 
2470 93640 
2471 93640 
2472 93640 
2473 93640 
2474 93640 
2475 93640 
2476 93640 
2477 93640 
2478 93640 
2479 93640 
2480 93640 
2481 93640 
2482 93640 
2483 93640 
2484 93640 
2485 93640 
2486 93640 
2487 93640 
2488 93640 
2489 93640 
2490 93640 
2491 93640 
2492 93640 
2493 93640 
2494 93640 
2495 93640 
2496 93640 
2497 93640 
2498 93640 
2499 93640 
2500 93640 
2501 93640 
2502 93640 
2503 93640 
2504 93640 
2505 93640 
2506 93640 
2507 93640 
2508 93640 
2509 93640 
2510 93640 
2511 93640 
2512 93640 
2513 93640 
2514 93640 
2515 93640 
2516 93640 
2517 93640 
2518 93640 
2519 93640 
2520 93640 
2521 93640 
2522 93640 
2523 93640 
2524 93640 
2525 93640 
2526 93640 
2527 93640 
2528 93640 
2529 93640 
2530 93640 
2531 93640 
2532 93640 
2533 93640 
2534 93640 
2535 93640 
2536 93640 
2537 93640 
2538 93640 
2539 93640 
2540 93640 
2541 93640 
2542 93640 
2543 93640 
2544 93640 
2545 93640 
2546 93640 
2547 93640 
2548 93640 
2549 93640 
2550 93640 
2551 93640 
2552 93640 
2553 93640 
2554 93640 
2555 93640 
2556 93640 
2557 93640 
2558 93640 
2559 93640 
2560 93640 
2561 93640 
2562 93640 
2563 93640 
2564 93640 
2565 93640 
2566 93640 
2567 93640 
2568 93640 
2569 93640 
2570 93640 
2571 93640 
2572 93640 
2573 93640 
2574 93640 
2575 93640 
2576 93640 
2577 93640 
2578 93640 
2579 93640 
2580 93640 
2581 93640 
2582 93640 
2583 93640 
2584 93640 
2585 93640 
2586 93640 
2587 93640 
2588 93640 
2589 93640 
2590 93640 
2591 93640 
2592 93640 
2593 93640 
2594 93640 
2595 93640 
2596 93640 
2597 93640 
2598 93640 
2599 93640 
2600 93640 
2601 93640 
2602 93640 
2603 93640 
2604 93640 
2605 93640 
2606 93640 
2607 93640 
2608 93640 
2609 93640 
2610 93640 
2611 93640 
2612 93640 
2613 93640 
2614 93640 
2615 93640 
2616 93640 
2617 93640 
2618 93640 
2619 93640 
2620 93640 
2621 93640 
2622 93640 
2623 93640 
2624 93640 
2625 93640 
2626 93640 
2627 93640 
2628 93640 
2629 93640 
2630 93640 
2631 93640 
2632 93640 
2633 93640 
2634 93640 
2635 93640 
2636 93640 
2637 93640 
2638 93640 
2639 93640 
2640 93640 
2641 93640 
2642 93640 
2643 93640 
2644 93640 
2645 93640 
2646 93640 
2647 93640 
2648 93640 
2649 93640 
2650 93640 
2651 93640 
2652 93640 
2653 93640 
2654 93640 
2655 93640 
2656 93640 
2657 93640 
2658 93640 
2659 93640 
2660 93640 
2661 93640 
2662 93640 
2663 93640 
2664 93640 
2665 93640 
2666 93640 
2667 93640 
2668 93640 
2669 93640 
2670 93640 
2671 93640 
2672 93640 
2673 93640 
2674 93640 
2675 93640 
2676 93640 
2677 93640 
2678 93640 
2679 93640 
2680 93640 
2681 93640 
2682 93640 
2683 93640 
2684 93640 
2685 93640 
2686 93640 
2687 93640 
2688 93640 
2689 93640 
2690 93640 
2691 93640 
2692 93640 
2693 93640 
2694 93640 
2695 93640 
2696 93640 
2697 93640 
2698 93640 
2699 93640 
2700 93640 
2701 93640 
2702 93640 
2703 93640 
2704 93640 
2705 93640 
2706 93640 
2707 93640 
2708 93640 
2709 93640 
2710 93640 
2711 93640 
2712 93640 
2713 93640 
2714 93640 
2715 93640 
2716 93640 
2717 93640 
2718 93640 
2719 93640 
2720 93640 
2721 93640 
2722 93640 
2723 93640 
2724 93640 
2725 93640 
2726 93640 
2727 93640 
2728 93640 
2729 93640 
2730 93640 
2731 93640 
2732 93640 
2733 93640 
2734 93640 
2735 93640 
2736 93640 
2737 93640 
2738 93640 
2739 93640 
2740 93640 
2741 93640 
2742 93640 
2743 93640 
2744 93640 
2745 93640 
2746 93640 
2747 93640 
2748 93640 
2749 93640 
2750 93640 
2751 93640 
2752 93640 
2753 93640 
2754 93640 
2755 93640 
2756 93640 
2757 93640 
2758 93640 
2759 93640 
2760 93640 
2761 93640 
2762 93640 
2763 93640 
2764 93640 
2765 93640 
2766 93640 
2767 93640 
2768 93640 
2769 93640 
2770 93640 
2771 93640 
2772 93640 
2773 93640 
2774 93640 
2775 93640 
2776 93640 
2777 93640 
2778 93640 
2779 93640 
2780 93640 
2781 93640 
2782 93640 
2783 93640 
2784 93640 
2785 93640 
2786 93640 
2787 93640 
2788 93640 
2789 93640 
2790 93640 
2791 93640 
2792 93640 
2793 93640 
2794 93640 
2795 93640 
2796 93640 
2797 93640 
2798 93640 
2799 93640 
2800 93640 
2801 93640 
2802 93640 
2803 93640 
2804 93640 
2805 93640 
2806 93640 
2807 93640 
2808 93640 
2809 93640 
2810 93640 
2811 93640 
2812 93640 
2813 93640 
2814 93640 
2815 93640 
2816 93640 
2817 93640 
2818 93640 
2819 93640 
2820 93640 
2821 93640 
2822 93640 
2823 93640 
2824 93640 
2825 93640 
2826 93640 
2827 93640 
2828 93640 
2829 93640 
2830 93640 
2831 93640 
2832 93640 
2833 93640 
2834 93640 
2835 93640 
2836 93640 
2837 93640 
2838 93640 
2839 93640 
2840 93640 
2841 93640 
2842 93640 
2843 93640 
2844 93640 
2845 93640 
2846 93640 
2847 93640 
2848 93640 
2849 93640 
2850 93640 
2851 93640 
2852 93640 
2853 93640 
2854 93640 
2855 93640 
2856 93640 
2857 93640 
2858 93640 
2859 93640 
2860 93640 
2861 93640 
2862 93640 
2863 93640 
2864 93640 
2865 93640 
2866 93640 
2867 93640 
2868 93640 
2869 93640 
2870 93640 
2871 93640 
2872 93640 
2873 93640 
2874 93640 
2875 93640 
2876 93640 
2877 93640 
2878 93640 
2879 93640 
2880 93640 
2881 93640 
2882 93640 
2883 93640 
2884 93640 
2885 93640 
2886 93640 
2887 93640 
2888 93640 
2889 93640 
2890 93640 
2891 93640 
2892 93640 
2893 93640 
2894 93640 
2895 93640 
2896 93640 
2897 93640 
2898 93640 
2899 93640 
2900 93640 
2901 93640 
2902 93640 
2903 93640 
2904 93640 
2905 93640 
2906 93640 
2907 93640 
2908 93640 
2909 93640 
2910 93640 
2911 93640 
2912 93640 
2913 93640 
2914 93640 
2915 93640 
2916 93640 
2917 93640 
2918 93640 
2919 93640 
2920 93640 
2921 93640 
2922 93640 
2923 93640 
2924 93640 
2925 93640 
2926 93640 
2927 93640 
2928 93640 
2929 93640 
2930 93640 
2931 93640 
2932 93640 
2933 93640 
2934 93640 
2935 93640 
2936 93640 
2937 93640 
2938 93640 
2939 93640 
2940 93640 
2941 93640 
2942 93640 
2943 93640 
2944 93640 
2945 93640 
2946 93640 
2947 93640 
2948 93640 
2949 93640 
2950 93640 
2951 93640 
2952 93640 
2953 93640 
2954 93640 
2955 93640 
2956 93640 
2957 93640 
2958 93640 
2959 93640 
2960 93640 
2961 93640 
2962 93640 
2963 93640 
2964 93640 
2965 93640 
2966 93640 
2967 93640 
2968 93640 
2969 93640 
2970 93640 
2971 93640 
2972 93640 
2973 93640 
2974 93640 
2975 93640 
2976 93640 
2977 93640 
2978 93640 
2979 93640 
2980 93640 
2981 93640 
2982 93640 
2983 93640 
2984 93640 
2985 93640 
2986 93640 
2987 93640 
2988 93640 
2989 93640 
2990 93640 
2991 93640 
2992 93640 
2993 93640 
2994 93640 
2995 93640 
2996 93640 
2997 93640 
2998 93640 
2999 93640 
3000 93640 
3001 93640 
3002 93640 
3003 93640 
3004 93640 
3005 93640 
3006 93640 
3007 93640 
3008 93640 
3009 93640 
3010 93640 
3011 93640 
3012 93640 
3013 93640 
3014 93640 
3015 93640 
3016 93640 
3017 93640 
3018 93640 
3019 93640 
3020 93640 
3021 93640 
3022 93640 
3023 93640 
3024 93640 
3025 93640 
3026 93640 
3027 93640 
3028 93640 
3029 93640 
3030 93640 
3031 93640 
3032 93640 
3033 93640 
3034 93640 
3035 93640 
3036 93640 
3037 93640 
3038 93640 
3039 93640 
3040 93640 
3041 93640 
3042 93640 
3043 93640 
3044 93640 
3045 93640 
3046 93640 
3047 93640 
3048 93640 
3049 93640 
3050 93640 
3051 93640 
3052 93640 
3053 93640 
3054 93640 
3055 93640 
3056 93640 
3057 93640 
3058 93640 
3059 93640 
3060 93640 
3061 93640 
3062 93640 
3063 93640 
3064 93640 
3065 93640 
3066 93640 
3067 93640 
3068 93640 
3069 93640 
3070 93640 
3071 93640 
3072 93640 
3073 93640 
3074 93640 
3075 93640 
3076 93640 
3077 93640 
3078 93640 
3079 93640 
3080 93640 
3081 93640 
3082 93640 
3083 93640 
3084 93640 
3085 93640 
3086 93640 
3087 93640 
3088 93640 
3089 93640 
3090 93640 
3091 93640 
3092 93640 
3093 93640 
3094 93640 
3095 93640 
3096 93640 
3097 93640 
3098 93640 
3099 93640 
3100 93640 
3101 93640 
3102 93640 
3103 93640 
3104 93640 
3105 93640 
3106 93640 
3107 93640 
3108 93640 
3109 93640 
3110 93640 
3111 93640 
3112 93640 
3113 93640 
3114 93640 
3115 93640 
3116 93640 
3117 93640 
3118 93640 
3119 93640 
3120 93640 
3121 93640 
3122 93640 
3123 93640 
3124 93640 
3125 93640 
3126 93640 
3127 93640 
3128 93640 
3129 93640 
3130 93640 
3131 93640 
3132 93640 
3133 93640 
3134 93640 
3135 93640 
3136 93640 
3137 93640 
3138 93640 
3139 93640 
3140 93640 
3141 93640 
3142 93640 
3143 93640 
3144 93640 
3145 93640 
3146 93640 
3147 93640 
3148 93640 
3149 93640 
3150 93640 
3151 93640 
3152 93640 
3153 93640 
3154 93640 
3155 93640 
3156 93640 
3157 93640 
3158 93640 
3159 93640 
3160 93640 
3161 93640 
3162 93640 
3163 93640 
3164 93640 
3165 93640 
3166 93640 
3167 93640 
3168 93640 
3169 93640 
3170 93640 
3171 93640 
3172 93640 
3173 93640 
3174 93640 
3175 93640 
3176 93640 
3177 93640 
3178 93640 
3179 93640 
3180 93640 
3181 93640 
3182 93640 
3183 93640 
3184 93640 
3185 93640 
3186 93640 
3187 93640 
3188 93640 
3189 93640 
3190 93640 
3191 93640 
3192 93640 
3193 93640 
3194 93640 
3195 93640 
3196 93640 
3197 93640 
3198 93640 
3199 93640 
3200 93640 
3201 93640 
3202 93640 
3203 93640 
3204 93640 
3205 93640 
3206 93640 
3207 93640 
3208 93640 

